experiment/data/lkh-res/Vrp-Set-Li-n1041/Vrp-Set-Li-n1041-lkh/0.lkh1.tour
NAME : 0.3244911.tour
COMMENT : Length = 3244911
COMMENT : Found by LKH-3 [Keld Helsgaun] Tue Apr  9 02:24:10 2024
TYPE : TOUR
DIMENSION : 1050
TOUR_SECTION
1
11
12
13
53
52
92
93
133
132
172
173
213
253
293
333
373
413
453
493
533
573
613
653
693
733
773
813
853
893
933
973
1013
1012
972
932
892
852
812
772
732
692
652
612
572
532
492
452
412
372
332
292
252
212
211
251
291
331
371
411
451
491
531
571
611
651
691
731
771
811
851
891
931
971
1011
1010
970
930
890
850
810
770
730
690
650
610
570
530
490
450
410
370
330
290
250
210
170
171
131
130
90
91
51
50
49
9
10
1045
7
8
48
47
46
86
87
88
89
129
169
209
249
289
329
369
409
449
489
529
569
609
649
689
729
769
809
849
889
929
969
1009
1008
968
928
888
848
808
768
728
688
648
608
568
528
488
448
408
368
328
288
248
208
207
247
287
327
367
407
447
487
527
567
607
647
687
727
767
807
847
887
927
967
1007
1006
966
926
886
846
806
766
726
686
646
606
566
526
486
446
406
366
326
286
246
206
166
167
168
128
127
126
125
85
45
5
6
1042
23
22
62
63
103
102
142
143
183
182
222
262
302
342
382
422
462
502
542
582
622
662
702
742
782
822
862
902
942
982
1022
1023
983
943
903
863
823
783
743
703
663
623
583
543
503
463
423
383
343
303
263
223
224
264
304
344
384
424
464
504
544
584
624
664
704
744
784
824
864
904
944
984
1024
1025
985
945
905
865
825
785
745
705
665
625
585
545
505
465
425
385
345
305
265
225
185
184
144
104
64
24
1044
25
65
105
145
146
147
148
188
187
186
226
266
306
346
386
426
466
506
546
586
626
666
706
746
786
826
866
906
946
986
1026
1027
987
947
907
867
827
787
747
707
667
627
587
547
507
467
427
387
347
307
267
227
228
268
308
348
388
428
468
508
548
588
628
668
708
748
788
828
868
908
948
988
1028
789
829
869
909
949
989
1029
1030
990
950
910
870
830
790
750
710
670
630
749
709
669
629
589
549
509
469
429
389
349
309
269
229
189
149
109
108
107
106
66
26
1050
41
2
42
82
122
161
201
200
240
241
281
321
361
401
441
481
521
561
601
641
560
600
640
680
720
760
800
840
880
920
960
1000
1040
1039
999
959
919
879
839
799
759
719
679
639
599
559
519
479
520
480
440
400
360
320
280
279
319
359
399
439
398
438
478
518
558
598
638
678
718
758
798
838
878
918
958
998
1038
1037
997
957
917
877
837
797
757
717
677
637
597
557
517
477
437
397
357
358
318
278
238
239
199
198
158
159
160
120
121
81
80
40
1047
20
19
59
99
98
138
139
179
178
218
258
298
338
378
418
458
498
538
578
618
658
698
738
778
818
858
898
938
978
1018
1019
979
939
899
859
819
779
739
699
659
619
579
539
499
459
419
379
339
299
259
219
220
260
300
340
380
420
460
500
540
580
620
660
700
740
780
820
860
900
940
980
1020
1021
981
941
901
861
821
781
741
701
661
621
581
541
501
461
421
381
341
301
261
221
181
180
140
141
101
100
60
61
21
1043
17
18
58
57
56
96
97
137
136
135
175
176
177
217
257
297
337
377
417
457
497
537
577
617
657
697
737
777
817
857
897
937
977
1017
1016
976
936
896
856
816
776
736
696
656
616
576
536
496
456
416
376
336
296
256
216
215
255
295
335
375
415
455
495
535
575
615
655
695
735
775
815
855
895
935
975
1015
1014
974
934
894
854
814
774
734
694
654
614
574
534
494
454
414
374
334
294
254
214
174
134
94
95
55
54
14
15
16
1049
4
44
84
124
164
165
205
245
285
325
365
405
445
485
525
565
605
645
685
725
765
805
845
885
925
965
1005
1004
964
924
884
844
804
764
724
684
644
604
564
524
484
444
404
364
324
284
244
204
203
243
283
323
363
403
443
483
523
563
603
643
683
723
763
803
843
883
923
963
1003
802
842
882
922
962
1002
1041
1001
961
921
881
841
801
761
721
681
762
722
682
642
602
562
522
482
442
402
362
322
282
242
202
162
163
123
83
43
3
1048
37
36
35
75
74
73
72
112
113
114
154
153
152
192
191
231
232
272
271
311
312
352
392
351
391
431
471
432
472
512
552
592
632
672
712
752
792
832
872
912
952
992
1032
1031
991
951
911
871
831
791
751
711
671
631
591
551
511
590
550
510
470
430
390
350
310
270
230
190
150
151
111
110
71
70
69
68
67
27
28
29
30
31
32
33
34
1046
38
78
77
76
116
115
155
195
194
193
233
273
313
353
393
433
473
513
553
593
633
673
713
753
793
833
873
913
953
993
1033
1034
994
954
914
874
834
794
754
714
674
634
594
554
514
474
434
394
354
314
274
234
235
236
276
275
315
355
395
435
475
515
555
595
635
675
715
755
795
835
875
915
955
995
1035
1036
996
956
916
876
836
796
756
716
676
636
596
556
516
476
436
396
356
316
317
277
237
197
196
156
157
117
118
119
79
39
-1
EOF
